CMPL model generation - running

CMPL version: 1.11.0
Authors: Thomas Schleiff, Mike Steglich
Distributed under the GPLv3 

create model instance ...
write model instance ...
CMPL model generation - finished

Solver - running


Welcome to IBM(R) ILOG(R) CPLEX(R) Interactive Optimizer 12.7.1.0
  with Simplex, Mixed Integer & Barrier Optimizers
5725-A06 5725-A29 5724-Y48 5724-Y49 5724-Y54 5724-Y55 5655-Y21
Copyright IBM Corp. 1988, 2017.  All Rights Reserved.

Type 'help' for a list of available commands.
Type 'help' followed by a command name for more
information on commands.

CPLEX> Specified objective sense: MINIMIZE
Selected objective  name:  line[1]
Selected RHS        name:  RHS
Selected bound      name:  BOUND
Problem '/tmp/cmpl.T27320.mps' read.
Read time = 0.21 sec. (20.24 ticks)
CPLEX> New value for mixed integer optimality gap tolerance: 0.007
CPLEX> CPLEX> CPXPARAM_Read_APIEncoding                        "UTF-8"
CPXPARAM_MIP_Tolerances_MIPGap                   0.0070000000000000001
Tried aggregator 3 times.
MIP Presolve eliminated 81302 rows and 53265 columns.
MIP Presolve modified 8525 coefficients.
Aggregator did 1775 substitutions.
Reduced MIP has 7150 rows, 5180 columns, and 22104 nonzeros.
Reduced MIP has 3535 binaries, 0 generals, 0 SOSs, and 0 indicators.
Presolve time = 0.20 sec. (105.74 ticks)
Found incumbent of value 4529.997282 after 0.24 sec. (124.07 ticks)
Probing fixed 0 vars, tightened 328 bounds.
Probing time = 0.06 sec. (15.38 ticks)
Tried aggregator 1 time.
MIP Presolve modified 924 coefficients.
Reduced MIP has 7150 rows, 5180 columns, and 22104 nonzeros.
Reduced MIP has 3745 binaries, 0 generals, 0 SOSs, and 0 indicators.
Presolve time = 0.04 sec. (17.21 ticks)
Probing time = 0.01 sec. (3.05 ticks)
Clique table members: 3015.
MIP emphasis: balance optimality and feasibility.
MIP search method: dynamic search.
Parallel mode: none, using 1 thread.
Root relaxation solution time = 1.90 sec. (1079.51 ticks)

        Nodes                                         Cuts/
   Node  Left     Objective  IInf  Best Integer    Best Bound    ItCnt     Gap

*     0+    0                         4529.9973     -706.8585           115.60%
      0     0     1931.4046   598     4529.9973     1931.4046     9110   57.36%
*     0+    0                         2001.3695     1931.4046             3.50%
      0     0     1939.1101   566     2001.3695    Cuts: 1077    10909    3.11%
*     0+    0                         1993.9409     1939.1101             2.75%
      0     0     1958.3265   464     1993.9409     Cuts: 900    12100    1.79%
*     0+    0                         1993.6895     1958.3265             1.77%
      0     0     1971.1556   426     1993.6895     Cuts: 570    12934    1.13%
*     0+    0                         1993.3009     1971.1556             1.11%
      0     0     1975.6860   441     1993.3009     Cuts: 288    13317    0.88%
      0     0     1976.8617   441     1993.3009     Cuts: 128    13485    0.82%
      0     0     1977.1735   444     1993.3009      Cuts: 66    13579    0.81%
      0     0     1977.1818   450     1993.3009      Cuts: 53    13655    0.81%
      0     0     1977.1839   448     1993.3009   MIRcuts: 39    13724    0.81%
*     0+    0                         1991.9295     1977.1839             0.74%
      0     2     1977.1839   432     1991.9295     1977.1839    13724    0.74%
Elapsed time = 8.07 sec. (3617.63 ticks, tree = 0.01 MB, solutions = 6)
*    10+   10                         1989.9867     1977.2030             0.64%

Implied bound cuts applied:  1143
Flow cuts applied:  16
Mixed integer rounding cuts applied:  578

Root node processing (before b&c):
  Real time             =    8.03 sec. (3610.74 ticks)
Sequential b&c:
  Real time             =    1.66 sec. (373.62 ticks)
                          ------------
Total (root+branch&cut) =    9.69 sec. (3984.36 ticks)

Solution pool: 7 solutions saved.

MIP - Integer optimal, tolerance (0.007/1e-06):  Objective =  1.9899866640e+03
Current MIP best bound =  1.9772029859e+03 (gap = 12.7837, 0.64%)
Solution time =    9.69 sec.  Iterations = 14305  Nodes = 10 (11)
Deterministic time = 3984.53 ticks  (411.08 ticks/sec)

CPLEX> Incumbent solution written to file '/tmp/cmpl.T27320.gsol'.
CPLEX> 
CMPL: Time used for model generation: 22 seconds
CMPL: Time used for solving the model: 12 seconds


Solution written to ASCII file: /media/sf_ltf/results/output_generated/2015-11-02-5/fair-nonlinear.sol

Solver - finished
